language Essence 1.3

letting can_fly be
        relation((1, 1), (1, 3), (1, 4), (1, 6), (1, 8), (1, 9), (1, 11), (1, 12), (1, 14), (1, 15), (1, 16), (1, 19),
                 (1, 21), (1, 27), (1, 29), (2, 1), (2, 4), (2, 5), (2, 7), (2, 8), (2, 9), (2, 10), (2, 13), (2, 15),
                 (2, 17), (2, 19), (2, 21), (2, 25), (2, 27), (3, 1), (3, 2), (3, 8), (3, 9), (3, 10), (3, 11), (3, 12),
                 (3, 15), (3, 17), (3, 25), (3, 27), (3, 28), (3, 29), (3, 30), (4, 2), (4, 3), (4, 4), (4, 5), (4, 6),
                 (4, 7), (4, 8), (4, 9), (4, 12), (4, 16), (4, 18), (4, 23), (4, 24), (4, 26), (5, 3), (5, 4), (5, 7),
                 (5, 10), (5, 11), (5, 12), (5, 14), (5, 15), (5, 19), (5, 20), (5, 22), (5, 26), (5, 27), (5, 30),
                 (6, 2), (6, 3), (6, 5), (6, 6), (6, 8), (6, 13), (6, 15), (6, 17), (6, 19), (6, 23), (6, 24), (6, 25),
                 (6, 28), (6, 29), (7, 1), (7, 3), (7, 6), (7, 9), (7, 11), (7, 12), (7, 13), (7, 16), (7, 17), (7, 21),
                 (7, 22), (7, 23), (7, 24), (7, 26), (7, 27), (7, 30), (8, 4), (8, 5), (8, 6), (8, 8), (8, 9), (8, 11),
                 (8, 12), (8, 13), (8, 14), (8, 17), (8, 18), (8, 20), (8, 21), (8, 22), (8, 23), (8, 24), (8, 27),
                 (8, 28), (9, 3), (9, 4), (9, 5), (9, 6), (9, 7), (9, 8), (9, 10), (9, 11), (9, 18), (9, 19), (9, 21),
                 (9, 22), (9, 24), (9, 26), (9, 27), (9, 28), (9, 30), (10, 4), (10, 5), (10, 11), (10, 13), (10, 16),
                 (10, 18), (10, 21), (10, 22), (10, 23), (10, 24), (10, 25), (10, 27), (10, 29), (10, 30), (11, 1),
                 (11, 3), (11, 5), (11, 6), (11, 7), (11, 9), (11, 12), (11, 15), (11, 18), (11, 21), (11, 23),
                 (11, 25), (11, 26), (11, 27), (11, 28))
$ Visualisation for can_fly
$  1  1
$  1  3
$  1  4
$  1  6
$  1  8
$  1  9
$  1 11
$  1 12
$  1 14
$  1 15
$  1 16
$  1 19
$  1 21
$  1 27
$  1 29
$  2  1
$  2  4
$  2  5
$  2  7
$  2  8
$  2  9
$  2 10
$  2 13
$  2 15
$  2 17
$  2 19
$  2 21
$  2 25
$  2 27
$  3  1
$  3  2
$  3  8
$  3  9
$  3 10
$  3 11
$  3 12
$  3 15
$  3 17
$  3 25
$  3 27
$  3 28
$  3 29
$  3 30
$  4  2
$  4  3
$  4  4
$  4  5
$  4  6
$  4  7
$  4  8
$  4  9
$  4 12
$  4 16
$  4 18
$  4 23
$  4 24
$  4 26
$  5  3
$  5  4
$  5  7
$  5 10
$  5 11
$  5 12
$  5 14
$  5 15
$  5 19
$  5 20
$  5 22
$  5 26
$  5 27
$  5 30
$  6  2
$  6  3
$  6  5
$  6  6
$  6  8
$  6 13
$  6 15
$  6 17
$  6 19
$  6 23
$  6 24
$  6 25
$  6 28
$  6 29
$  7  1
$  7  3
$  7  6
$  7  9
$  7 11
$  7 12
$  7 13
$  7 16
$  7 17
$  7 21
$  7 22
$  7 23
$  7 24
$  7 26
$  7 27
$  7 30
$  8  4
$  8  5
$  8  6
$  8  8
$  8  9
$  8 11
$  8 12
$  8 13
$  8 14
$  8 17
$  8 18
$  8 20
$  8 21
$  8 22
$  8 23
$  8 24
$  8 27
$  8 28
$  9  3
$  9  4
$  9  5
$  9  6
$  9  7
$  9  8
$  9 10
$  9 11
$  9 18
$  9 19
$  9 21
$  9 22
$  9 24
$  9 26
$  9 27
$  9 28
$  9 30
$ 10  4
$ 10  5
$ 10 11
$ 10 13
$ 10 16
$ 10 18
$ 10 21
$ 10 22
$ 10 23
$ 10 24
$ 10 25
$ 10 27
$ 10 29
$ 10 30
$ 11  1
$ 11  3
$ 11  5
$ 11  6
$ 11  7
$ 11  9
$ 11 12
$ 11 15
$ 11 18
$ 11 21
$ 11 23
$ 11 25
$ 11 26
$ 11 27
$ 11 28

letting carry_in be
        function(1 --> 7, 2 --> 8, 3 --> 24, 4 --> 9, 5 --> 25, 6 --> 29, 7 --> 18, 8 --> 14, 9 --> 4, 10 --> 10,
                 11 --> 26)
letting maint be {1, 3, 4, 5, 6, 10, 13, 14, 15, 16, 17, 19, 21, 23, 24, 26, 28, 29, 30}
letting maint_freq be 19
letting n_flights be 30
letting n_planes be 11
letting network be
        relation((1, 1), (1, 6), (1, 7), (1, 8), (1, 9), (1, 10), (1, 14), (1, 17), (1, 18), (1, 21), (1, 22), (1, 25),
                 (1, 27), (1, 28), (1, 29), (1, 30), (2, 2), (2, 3), (2, 4), (2, 5), (2, 7), (2, 9), (2, 10), (2, 14),
                 (2, 16), (2, 20), (2, 24), (2, 25), (2, 26), (2, 27), (2, 29), (2, 30), (3, 1), (3, 3), (3, 6), (3, 7),
                 (3, 8), (3, 10), (3, 15), (3, 17), (3, 18), (3, 19), (3, 20), (3, 22), (3, 23), (3, 26), (3, 27),
                 (3, 29), (4, 6), (4, 7), (4, 9), (4, 11), (4, 12), (4, 13), (4, 14), (4, 15), (4, 17), (4, 18),
                 (4, 19), (4, 21), (4, 22), (4, 27), (4, 30), (5, 1), (5, 2), (5, 3), (5, 4), (5, 6), (5, 7), (5, 10),
                 (5, 11), (5, 12), (5, 13), (5, 14), (5, 16), (5, 18), (5, 20), (5, 21), (5, 23), (5, 24), (5, 25),
                 (5, 27), (5, 28), (5, 29), (5, 30), (6, 2), (6, 5), (6, 8), (6, 9), (6, 12), (6, 13), (6, 15), (6, 18),
                 (6, 19), (6, 20), (6, 22), (6, 23), (6, 24), (6, 26), (6, 27), (6, 30), (7, 5), (7, 9), (7, 11),
                 (7, 12), (7, 15), (7, 16), (7, 20), (7, 24), (7, 26), (7, 27), (7, 28), (7, 30), (8, 1), (8, 4),
                 (8, 5), (8, 7), (8, 9), (8, 10), (8, 11), (8, 12), (8, 13), (8, 21), (8, 22), (8, 29), (8, 30), (9, 1),
                 (9, 2), (9, 5), (9, 6), (9, 7), (9, 9), (9, 11), (9, 12), (9, 14), (9, 18), (9, 19), (9, 20), (9, 22),
                 (9, 23), (9, 25), (10, 1), (10, 5), (10, 6), (10, 9), (10, 10), (10, 11), (10, 12), (10, 14), (10, 15),
                 (10, 17), (10, 18), (10, 19), (10, 21), (10, 23), (11, 1), (11, 2), (11, 6), (11, 7), (11, 10),
                 (11, 15), (11, 21), (11, 23), (11, 24), (11, 25), (11, 26), (11, 28), (12, 5), (12, 6), (12, 7),
                 (12, 9), (12, 11), (12, 13), (12, 14), (12, 16), (12, 17), (12, 19), (12, 20), (12, 21), (12, 23),
                 (12, 24), (12, 25), (12, 27), (12, 28), (13, 1), (13, 4), (13, 5), (13, 8), (13, 11), (13, 12),
                 (13, 14), (13, 16), (13, 17), (13, 18), (13, 20), (13, 21), (13, 23), (13, 24), (13, 25), (13, 26),
                 (13, 28), (13, 29), (14, 1), (14, 2), (14, 3), (14, 5), (14, 6), (14, 8), (14, 11), (14, 12), (14, 13),
                 (14, 15), (14, 16), (14, 18), (14, 20), (14, 25), (14, 29), (15, 1), (15, 4), (15, 5), (15, 6),
                 (15, 9), (15, 11), (15, 12), (15, 15), (15, 16), (15, 17), (15, 18), (15, 22), (15, 25), (15, 27),
                 (15, 28), (16, 1), (16, 5), (16, 7), (16, 9), (16, 10), (16, 11), (16, 12), (16, 13), (16, 15),
                 (16, 16), (16, 21), (16, 22), (16, 25), (16, 27), (17, 3), (17, 6), (17, 7), (17, 9), (17, 12),
                 (17, 13), (17, 14), (17, 16), (17, 18), (17, 20), (17, 21), (17, 23), (17, 27), (17, 28), (17, 29),
                 (17, 30), (18, 2), (18, 4), (18, 5), (18, 7), (18, 9), (18, 10), (18, 13), (18, 14), (18, 15),
                 (18, 17), (18, 18), (18, 19), (18, 20), (18, 21), (18, 25), (18, 30), (19, 3), (19, 5), (19, 6),
                 (19, 11), (19, 12), (19, 13), (19, 14), (19, 15), (19, 18), (19, 19), (19, 20), (19, 21), (19, 24),
                 (19, 25), (19, 28), (19, 29), (20, 3), (20, 4), (20, 5), (20, 7), (20, 8), (20, 9), (20, 10), (20, 12),
                 (20, 13), (20, 14), (20, 15), (20, 23), (20, 24), (20, 29), (21, 1), (21, 2), (21, 3), (21, 4),
                 (21, 7), (21, 8), (21, 10), (21, 11), (21, 13), (21, 14), (21, 16), (21, 17), (21, 18), (21, 20),
                 (21, 21), (21, 22), (21, 29), (21, 30), (22, 1), (22, 2), (22, 3), (22, 6), (22, 7), (22, 8), (22, 11),
                 (22, 12), (22, 14), (22, 15), (22, 20), (22, 21), (22, 23), (22, 25), (22, 26), (22, 27), (23, 1),
                 (23, 3), (23, 4), (23, 5), (23, 6), (23, 8), (23, 9), (23, 11), (23, 12), (23, 13), (23, 15), (23, 17),
                 (23, 18), (23, 21), (23, 23), (23, 26), (23, 27), (23, 29), (24, 1), (24, 2), (24, 4), (24, 5),
                 (24, 6), (24, 7), (24, 10), (24, 12), (24, 13), (24, 14), (24, 15), (24, 16), (24, 17), (24, 18),
                 (24, 20), (24, 21), (24, 22), (24, 23), (24, 25), (24, 29), (24, 30), (25, 1), (25, 2), (25, 4),
                 (25, 12), (25, 14), (25, 17), (25, 20), (25, 21), (25, 22), (25, 25), (25, 26), (25, 27), (25, 30),
                 (26, 1), (26, 2), (26, 5), (26, 7), (26, 13), (26, 14), (26, 15), (26, 19), (26, 23), (26, 24),
                 (26, 28), (26, 30), (27, 1), (27, 3), (27, 4), (27, 5), (27, 6), (27, 7), (27, 8), (27, 10), (27, 12),
                 (27, 13), (27, 14), (27, 15), (27, 18), (27, 20), (27, 21), (27, 22), (27, 25), (27, 26), (27, 28),
                 (28, 2), (28, 10), (28, 11), (28, 13), (28, 19), (28, 21), (28, 22), (28, 23), (28, 25), (28, 26),
                 (28, 27), (28, 28), (28, 30), (29, 6), (29, 8), (29, 11), (29, 12), (29, 13), (29, 14), (29, 15),
                 (29, 16), (29, 20), (29, 22), (29, 23), (29, 26), (29, 28), (29, 29), (30, 1), (30, 2), (30, 4),
                 (30, 5), (30, 10), (30, 11), (30, 13), (30, 14), (30, 15), (30, 16), (30, 17), (30, 18), (30, 22),
                 (30, 23), (30, 25), (30, 27), (30, 28), (30, 30))
$ Visualisation for network
$  1  1
$  1  6
$  1  7
$  1  8
$  1  9
$  1 10
$  1 14
$  1 17
$  1 18
$  1 21
$  1 22
$  1 25
$  1 27
$  1 28
$  1 29
$  1 30
$  2  2
$  2  3
$  2  4
$  2  5
$  2  7
$  2  9
$  2 10
$  2 14
$  2 16
$  2 20
$  2 24
$  2 25
$  2 26
$  2 27
$  2 29
$  2 30
$  3  1
$  3  3
$  3  6
$  3  7
$  3  8
$  3 10
$  3 15
$  3 17
$  3 18
$  3 19
$  3 20
$  3 22
$  3 23
$  3 26
$  3 27
$  3 29
$  4  6
$  4  7
$  4  9
$  4 11
$  4 12
$  4 13
$  4 14
$  4 15
$  4 17
$  4 18
$  4 19
$  4 21
$  4 22
$  4 27
$  4 30
$  5  1
$  5  2
$  5  3
$  5  4
$  5  6
$  5  7
$  5 10
$  5 11
$  5 12
$  5 13
$  5 14
$  5 16
$  5 18
$  5 20
$  5 21
$  5 23
$  5 24
$  5 25
$  5 27
$  5 28
$  5 29
$  5 30
$  6  2
$  6  5
$  6  8
$  6  9
$  6 12
$  6 13
$  6 15
$  6 18
$  6 19
$  6 20
$  6 22
$  6 23
$  6 24
$  6 26
$  6 27
$  6 30
$  7  5
$  7  9
$  7 11
$  7 12
$  7 15
$  7 16
$  7 20
$  7 24
$  7 26
$  7 27
$  7 28
$  7 30
$  8  1
$  8  4
$  8  5
$  8  7
$  8  9
$  8 10
$  8 11
$  8 12
$  8 13
$  8 21
$  8 22
$  8 29
$  8 30
$  9  1
$  9  2
$  9  5
$  9  6
$  9  7
$  9  9
$  9 11
$  9 12
$  9 14
$  9 18
$  9 19
$  9 20
$  9 22
$  9 23
$  9 25
$ 10  1
$ 10  5
$ 10  6
$ 10  9
$ 10 10
$ 10 11
$ 10 12
$ 10 14
$ 10 15
$ 10 17
$ 10 18
$ 10 19
$ 10 21
$ 10 23
$ 11  1
$ 11  2
$ 11  6
$ 11  7
$ 11 10
$ 11 15
$ 11 21
$ 11 23
$ 11 24
$ 11 25
$ 11 26
$ 11 28
$ 12  5
$ 12  6
$ 12  7
$ 12  9
$ 12 11
$ 12 13
$ 12 14
$ 12 16
$ 12 17
$ 12 19
$ 12 20
$ 12 21
$ 12 23
$ 12 24
$ 12 25
$ 12 27
$ 12 28
$ 13  1
$ 13  4
$ 13  5
$ 13  8
$ 13 11
$ 13 12
$ 13 14
$ 13 16
$ 13 17
$ 13 18
$ 13 20
$ 13 21
$ 13 23
$ 13 24
$ 13 25
$ 13 26
$ 13 28
$ 13 29
$ 14  1
$ 14  2
$ 14  3
$ 14  5
$ 14  6
$ 14  8
$ 14 11
$ 14 12
$ 14 13
$ 14 15
$ 14 16
$ 14 18
$ 14 20
$ 14 25
$ 14 29
$ 15  1
$ 15  4
$ 15  5
$ 15  6
$ 15  9
$ 15 11
$ 15 12
$ 15 15
$ 15 16
$ 15 17
$ 15 18
$ 15 22
$ 15 25
$ 15 27
$ 15 28
$ 16  1
$ 16  5
$ 16  7
$ 16  9
$ 16 10
$ 16 11
$ 16 12
$ 16 13
$ 16 15
$ 16 16
$ 16 21
$ 16 22
$ 16 25
$ 16 27
$ 17  3
$ 17  6
$ 17  7
$ 17  9
$ 17 12
$ 17 13
$ 17 14
$ 17 16
$ 17 18
$ 17 20
$ 17 21
$ 17 23
$ 17 27
$ 17 28
$ 17 29
$ 17 30
$ 18  2
$ 18  4
$ 18  5
$ 18  7
$ 18  9
$ 18 10
$ 18 13
$ 18 14
$ 18 15
$ 18 17
$ 18 18
$ 18 19
$ 18 20
$ 18 21
$ 18 25
$ 18 30
$ 19  3
$ 19  5
$ 19  6
$ 19 11
$ 19 12
$ 19 13
$ 19 14
$ 19 15
$ 19 18
$ 19 19
$ 19 20
$ 19 21
$ 19 24
$ 19 25
$ 19 28
$ 19 29
$ 20  3
$ 20  4
$ 20  5
$ 20  7
$ 20  8
$ 20  9
$ 20 10
$ 20 12
$ 20 13
$ 20 14
$ 20 15
$ 20 23
$ 20 24
$ 20 29
$ 21  1
$ 21  2
$ 21  3
$ 21  4
$ 21  7
$ 21  8
$ 21 10
$ 21 11
$ 21 13
$ 21 14
$ 21 16
$ 21 17
$ 21 18
$ 21 20
$ 21 21
$ 21 22
$ 21 29
$ 21 30
$ 22  1
$ 22  2
$ 22  3
$ 22  6
$ 22  7
$ 22  8
$ 22 11
$ 22 12
$ 22 14
$ 22 15
$ 22 20
$ 22 21
$ 22 23
$ 22 25
$ 22 26
$ 22 27
$ 23  1
$ 23  3
$ 23  4
$ 23  5
$ 23  6
$ 23  8
$ 23  9
$ 23 11
$ 23 12
$ 23 13
$ 23 15
$ 23 17
$ 23 18
$ 23 21
$ 23 23
$ 23 26
$ 23 27
$ 23 29
$ 24  1
$ 24  2
$ 24  4
$ 24  5
$ 24  6
$ 24  7
$ 24 10
$ 24 12
$ 24 13
$ 24 14
$ 24 15
$ 24 16
$ 24 17
$ 24 18
$ 24 20
$ 24 21
$ 24 22
$ 24 23
$ 24 25
$ 24 29
$ 24 30
$ 25  1
$ 25  2
$ 25  4
$ 25 12
$ 25 14
$ 25 17
$ 25 20
$ 25 21
$ 25 22
$ 25 25
$ 25 26
$ 25 27
$ 25 30
$ 26  1
$ 26  2
$ 26  5
$ 26  7
$ 26 13
$ 26 14
$ 26 15
$ 26 19
$ 26 23
$ 26 24
$ 26 28
$ 26 30
$ 27  1
$ 27  3
$ 27  4
$ 27  5
$ 27  6
$ 27  7
$ 27  8
$ 27 10
$ 27 12
$ 27 13
$ 27 14
$ 27 15
$ 27 18
$ 27 20
$ 27 21
$ 27 22
$ 27 25
$ 27 26
$ 27 28
$ 28  2
$ 28 10
$ 28 11
$ 28 13
$ 28 19
$ 28 21
$ 28 22
$ 28 23
$ 28 25
$ 28 26
$ 28 27
$ 28 28
$ 28 30
$ 29  6
$ 29  8
$ 29 11
$ 29 12
$ 29 13
$ 29 14
$ 29 15
$ 29 16
$ 29 20
$ 29 22
$ 29 23
$ 29 26
$ 29 28
$ 29 29
$ 30  1
$ 30  2
$ 30  4
$ 30  5
$ 30 10
$ 30 11
$ 30 13
$ 30 14
$ 30 15
$ 30 16
$ 30 17
$ 30 18
$ 30 22
$ 30 23
$ 30 25
$ 30 27
$ 30 28
$ 30 30

